3º ano/MDIO/TP2/TP2.lp
/* Recolha de lixo minimizando a distância total percorrida */


/* Objective Function */


min: 3*y0_1 + 3 + 3*y1_2 + 3 + 3*y1_10 + 3 + 4*y2_3 + 4 + 4*y2_24 + 4 + 2*y3_4 + 2 + 2*y3_17 + 2 + 8*y4_5 + 8 + 2*y5_6 + 2 + 4*y6_7 + 4 + 4*y7_24 + 4 + 4*y7_8 + 4 + 2*y8_9 + 2 + 8*y9_0 + 8 + 2*y10_11 + 2 + 3*y11_12 + 3 + 1*y12_13 + 1 + 2*y13_8 + 2 + 2*y13_14 + 2 + 2*y14_15 + 2 + 1*y15_16 + 1 + 1*y16_10 + 1 + 2*y15_24 + 2 + 3*y24_19 + 3 + 1*y19_20 + 1 + 1*y20_21 + 1 + 3*y21_6 + 3 + 1*y21_22 + 1 + 3*y22_23 + 3 + 1*y23_17 + 1 + 1*y17_18 + 1 + 2*y18_19 + 2;



/*

   Definição das variáveis de decisão

   variáveis de decisão:

   yi_j: Número de vezes que o veículo é reposicionado na aresta que liga o vértice i ao vértice j.
   

 */


 /* Restrições */

-y0_1 + y1_10 + y1_2 = -1;
-y2_3 + y3_17 + y3_4 = -1;
-y4_5 + y5_6 = 0;
-y6_7 + y7_24 + y7_8 =-1;
-y8_9 + y9_0 = 0;
-y10_11 + y11_12 =0;
-y12_13 + y12_14 + y13_8 = -1;
-y9_0 + y0_1 = 0;
-y15_16 + y16_10 =0;
-y17_18 + y18_19 = 0;
-y19_20 + y20_21 = 0;
-y21_22 + y22_23 =0;
-y2_24 - y15_24 -y7_24 + y24_19 = 2;
-y1_2 + y2_24 + y2_3 = -1;
-y3_4 + y4_5 =0;
-y5_6 - y21_6 + y6_7 = 1;
-y7_8 -y13_8 + y8_9=1;
-y1_10 - y16_10 + y10_11 = 1;
-y11_12 + y12_13 = 0;
-y13_14 + y14_15 = 0;
-y14_15 + y15_24 + y15_16 = -1;
-y3_17 -y23_17 + y17_18 =1 ;
-y18_19 - y24_19 + y19_20 =1;
-y20_21 + y21_22 + y21_6 = -1;
-y22_23 + y23_17 =0;


/* Restrições de não negatividade */

y0_1 >= 0;
y1_2 >= 0;
y2_3 >= 0;
y3_4 >= 0;
y4_5 >= 0;
y5_6 >= 0;
y6_7 >= 0;
y7_8 >= 0;
y8_9 >= 0;
y9_0 >= 0;
y1_10 >= 0;
y10_11 >= 0;
y11_12 >= 0;
y12_13 >= 0;
y13_14 >= 0;
y14_15 >= 0;
y15_16 >= 0;
y16_10 >= 0;
y13_8 >= 0;
y3_17 >= 0;
y17_18 >= 0;
y18_19 >= 0;
y19_20 >= 0;
y20_21 >= 0;
y21_22 >= 0;
y22_23 >= 0;
y23_17 >= 0;
y21_6 >= 0;
y15_24 >= 0;
y24_19 >= 0;
y2_24 >= 0;
y7_24 >= 0;

/* Restrições de integralidade */

int  y0_1   , y1_2.  , y1_10  , y2_3   , y2_24  , y3_4   , y3_17  ,
     y5_6   , y6_7   , y7_24  , y7_8.  , y8_9   , y9_0   , y10_11 ,
     y12_13 , y13_8  , y13_14 , y14_15 , y15_16 , y16_10 , y15_24 ,
     y24_19 , y19_20 , y20_21 , y21_6  , y21_22 , y22_23 , y23_17 ,
     y17_18 , y18_19 , y4_5   , y11_12;



