3ano/MDIO/TP2/TP2.txt
25
32
1 2 3 99
2 3 3 99
2 11 3 99
3 4 4 99
3 25 4 99
4 5 2 99
4 18 2 99
5 6 8 99
6 7 2 99
7 8 4 99
8 9 4 99
8 25 4 99
9 10 2 99
10 1 8 99
11 12 2 99
12 13 3 99
13 14 1 99
14 9 2 99
14 15 2 99
15 16 2 99
16 17 1 99
16 25 2 99
17 11 1 99
18 19 1 99
19 20 2 99
20 21 1 99
21 22 1 99
22 7 3 99
22 23 1 99
23 24 3 99
24 18 1 99
25 20 3 99
0
-1
-1
-1
0
0
1
-1
1
0
1
0
0
-1
0
-1
0
1
0
1
0
-1
0
0
2